
Gurobi 6.5.2 (linux64) logging started Sun Sep 18 18:50:53 2016


Gurobi 6.5.2 (linux64) logging started Sun Sep 18 18:50:53 2016

Optimize a model with 201 rows, 3565 columns and 7429 nonzeros
Coefficient statistics:
  Matrix range    [1e+00, 2e+00]
  Objective range [1e+00, 1e+02]
  Bounds range    [1e+00, 1e+00]
  RHS range       [1e+00, 1e+00]
Presolve removed 59 rows and 6 columns
Presolve time: 0.01s
Presolved: 142 rows, 3559 columns, 7181 nonzeros
Variable types: 0 continuous, 3559 integer (3559 binary)

Root relaxation: objective 8.200000e+02, 135 iterations, 0.00 seconds

    Nodes    |    Current Node    |     Objective Bounds      |     Work
 Expl Unexpl |  Obj  Depth IntInf | Incumbent    BestBd   Gap | It/Node Time

     0     0  820.00000    0   18          -  820.00000      -     -    0s
     0     0  824.50000    0   24          -  824.50000      -     -    0s
     0     0  825.25000    0   21          -  825.25000      -     -    0s
     0     0  826.33333    0   24          -  826.33333      -     -    0s
     0     0  826.33333    0   24          -  826.33333      -     -    0s
     0     2  826.33333    0   24          -  826.33333      -     -    0s
  3785  2138 1098.00000  158    4          -  831.00000      -   6.5    5s
  7173  4972  840.00000   23    -          -  831.23786      -   6.6   10s

Cutting planes:
  Gomory: 10
  Cover: 5
  Flow cover: 3
  Zero half: 9
  Lazy constraints: 1048

Explored 7372 nodes (48725 simplex iterations) in 10.07 seconds
Thread count was 8 (of 8 available processors)

Time limit reached
Best objective -, best bound 8.320000000000e+02, gap -
